self-compositions/words_1/words_559_SAT.qaiger
aag 77 24 0 1 53
18
4
36
32
6
40
42
38
20
10
12
8
30
44
46
22
28
16
26
48
34
14
2
24
154
50 44 42
52 50 40
54 52 38
56 54 36
58 33 17
60 58 34
62 59 35
64 63 61
66 65 57
68 31 15
70 55 37
72 71 57
74 72 68
76 75 67
78 23 7
80 78 45
82 21 5
84 82 46
86 83 47
88 87 85
90 19 3
92 90 48
94 91 49
96 95 93
98 96 88
100 98 81
102 25 9
104 102 43
106 103 42
108 107 105
110 109 44
112 108 79
114 113 111
116 114 100
118 29 13
120 53 39
122 121 55
124 123 119
126 27 11
128 51 41
130 129 53
132 130 127
134 131 126
136 135 133
138 137 125
140 138 116
142 140 76
144 73 69
146 64 56
148 122 118
150 149 147
152 150 145
154 152 142
i0 1 x[0]
i1 2 y[1]
i2 2 z[1]
i3 1 x[7]
i4 2 y[2]
i5 2 z[3]
i6 2 z[4]
i7 2 z[2]
i8 1 x[1]
i9 2 y[4]
i10 2 y[5]
i11 2 y[3]
i12 1 x[6]
i13 2 z[5]
i14 2 z[6]
i15 1 x[2]
i16 1 x[5]
i17 2 y[7]
i18 1 x[4]
i19 2 z[7]
i20 2 z[0]
i21 2 y[6]
i22 2 y[0]
i23 1 x[3]
o0 bool[0]
c
simplified
  ==
    or
      2 y
      1 x
    add
      reverse
        2 z
      << 2
        1
