self-compositions/words_1/words_559_SAT.qaiger.qdimacs
p cnf 77 160
a 9 10 11 12 13 14 15 16 0
e 1 2 3 4 5 6 7 8 17 18 19 20 21 22 23 24 25 26 27 28 29 30 31 32 33 34 35 36 37 38 39 40 41 42 43 44 45 46 47 48 49 50 51 52 53 54 55 56 57 58 59 60 61 62 63 64 65 66 67 68 69 70 71 72 73 74 75 76 77 0
-22 -21 25 0
22 -25 0
21 -25 0
-25 -20 26 0
25 -26 0
20 -26 0
-26 -19 27 0
26 -27 0
19 -27 0
-27 -18 28 0
27 -28 0
18 -28 0
16 8 29 0
-16 -29 0
-8 -29 0
-29 -17 30 0
29 -30 0
17 -30 0
29 17 31 0
-29 -31 0
-17 -31 0
31 30 32 0
-31 -32 0
-30 -32 0
32 28 33 0
-32 -33 0
-28 -33 0
15 7 34 0
-15 -34 0
-7 -34 0
27 18 35 0
-27 -35 0
-18 -35 0
35 28 36 0
-35 -36 0
-28 -36 0
-36 -34 37 0
36 -37 0
34 -37 0
37 33 38 0
-37 -38 0
-33 -38 0
11 3 39 0
-11 -39 0
-3 -39 0
-39 22 40 0
39 -40 0
-22 -40 0
10 2 41 0
-10 -41 0
-2 -41 0
-41 -23 42 0
41 -42 0
23 -42 0
41 23 43 0
-41 -43 0
-23 -43 0
43 42 44 0
-43 -44 0
-42 -44 0
9 1 45 0
-9 -45 0
-1 -45 0
-45 -24 46 0
45 -46 0
24 -46 0
45 24 47 0
-45 -47 0
-24 -47 0
47 46 48 0
-47 -48 0
-46 -48 0
-48 -44 49 0
48 -49 0
44 -49 0
-49 40 50 0
49 -50 0
-40 -50 0
12 4 51 0
-12 -51 0
-4 -51 0
-51 21 52 0
51 -52 0
-21 -52 0
51 -21 53 0
-51 -53 0
21 -53 0
53 52 54 0
-53 -54 0
-52 -54 0
54 -22 55 0
-54 -55 0
22 -55 0
-54 39 56 0
54 -56 0
-39 -56 0
56 55 57 0
-56 -57 0
-55 -57 0
-57 -50 58 0
57 -58 0
50 -58 0
14 6 59 0
-14 -59 0
-6 -59 0
26 19 60 0
-26 -60 0
-19 -60 0
60 27 61 0
-60 -61 0
-27 -61 0
61 59 62 0
-61 -62 0
-59 -62 0
13 5 63 0
-13 -63 0
-5 -63 0
25 20 64 0
-25 -64 0
-20 -64 0
64 26 65 0
-64 -65 0
-26 -65 0
-65 63 66 0
65 -66 0
-63 -66 0
65 -63 67 0
-65 -67 0
63 -67 0
67 66 68 0
-67 -68 0
-66 -68 0
68 62 69 0
-68 -69 0
-62 -69 0
-69 -58 70 0
69 -70 0
58 -70 0
-70 -38 71 0
70 -71 0
38 -71 0
36 34 72 0
-36 -72 0
-34 -72 0
-32 -28 73 0
32 -73 0
28 -73 0
-61 -59 74 0
61 -74 0
59 -74 0
74 73 75 0
-74 -75 0
-73 -75 0
-75 72 76 0
75 -76 0
-72 -76 0
-76 -71 77 0
76 -77 0
71 -77 0
77 0
